130 5
10 10 10 10 10 

0 0 0 0 0 0 1 2 
0 0 0 0 0 0 5 3 5 6 11 12 
5 0 3 0 0 0 3 10 8 4 
1 0 6 0 0 0 2 9 7 
5 0 10 0 0 0 1 8 
4 0 6 0 0 0 1 7 
10 0 10 0 0 0 1 13 
7 0 8 0 0 0 1 13 
1 0 9 0 0 0 1 13 
1 0 10 0 0 0 1 13 
9 0 10 0 0 0 1 13 
8 0 3 0 0 0 1 13 
0 0 0 0 0 0 2 14 26 
0 0 0 0 0 0 5 15 16 18 19 105 
4 0 0 0 0 5 3 24 22 17 
9 0 0 0 0 6 4 24 22 21 20 
5 0 0 0 0 6 3 23 21 20 
1 0 0 0 0 6 3 22 21 20 
9 0 0 0 0 10 2 23 20 
9 0 0 0 0 7 1 25 
2 0 0 0 0 10 1 25 
8 0 0 0 0 10 1 25 
7 0 0 0 0 9 1 25 
9 0 0 0 0 6 1 25 
0 0 0 0 0 0 1 38 
0 0 0 0 0 0 4 27 28 29 32 
7 0 0 2 0 0 4 36 34 31 30 
8 0 0 10 0 0 3 36 35 30 
4 0 0 6 0 0 2 34 33 
3 0 0 10 0 0 2 33 77 
5 0 0 10 0 0 1 35 
2 0 0 6 0 0 1 34 
9 0 0 7 0 0 1 37 
2 0 0 6 0 0 1 37 
2 0 0 8 0 0 1 37 
10 0 0 10 0 0 1 37 
0 0 0 0 0 0 1 38 
0 0 0 0 0 0 3 39 51 73 
0 0 0 0 0 0 6 40 41 43 47 48 49 
3 0 0 0 2 0 2 46 42 
3 0 0 0 9 0 1 42 
5 0 0 0 5 0 2 45 44 
7 0 0 0 10 0 1 44 
1 0 0 0 10 0 1 50 
10 0 0 0 10 0 1 50 
10 0 0 0 6 0 2 50 110 
8 0 0 0 7 0 1 50 
2 0 0 0 10 0 1 50 
3 0 0 0 6 0 1 50 
0 0 0 0 0 0 2 95 107 
0 0 0 0 0 0 12 52 53 54 55 56 60 61 62 68 69 70 71 
3 7 0 6 0 0 3 67 65 58 
9 6 0 7 0 0 2 64 57 
7 10 0 6 0 0 3 66 65 59 
9 10 0 5 0 0 2 66 59 
3 6 0 10 0 0 2 65 59 
1 10 0 4 0 0 1 58 
10 10 0 9 0 0 1 59 
10 7 0 6 0 0 1 63 
1 7 0 6 0 0 1 64 
6 5 0 10 0 0 1 64 
2 5 0 10 0 0 1 63 
10 10 0 8 0 0 1 72 
8 10 0 10 0 0 1 72 
4 6 0 8 0 0 1 72 
3 10 0 10 0 0 1 72 
5 10 0 4 0 0 1 72 
1 8 0 8 0 0 1 72 
5 6 0 10 0 0 1 72 
9 3 0 7 0 0 1 72 
8 4 0 6 0 0 1 72 
0 0 0 0 0 0 1 119 
0 0 0 0 0 0 6 74 76 77 79 81 84 
6 4 2 0 0 0 2 85 75 
10 6 9 0 0 0 3 91 82 78 
9 9 5 0 0 0 2 85 78 
4 10 10 0 0 0 3 92 86 80 
8 10 8 0 0 0 4 92 89 87 83 
10 5 10 0 0 0 4 90 89 88 85 
10 5 10 0 0 0 2 91 82 
4 8 6 0 0 0 2 86 82 
1 9 8 0 0 0 3 89 88 87 
7 5 10 0 0 0 3 93 90 88 
7 4 6 0 0 0 2 91 87 
2 8 5 0 0 0 1 86 
8 10 7 0 0 0 1 87 
4 8 8 0 0 0 1 94 
2 8 10 0 0 0 1 94 
8 10 3 0 0 0 1 94 
4 10 8 0 0 0 1 94 
7 7 10 0 0 0 1 94 
5 4 5 0 0 0 1 94 
2 10 10 0 0 0 1 94 
0 0 0 0 0 0 1 119 
0 0 0 0 0 0 5 96 97 100 101 105 
2 0 0 0 0 2 3 104 99 98 
7 0 0 0 0 5 2 103 98 
3 0 0 0 0 6 1 102 
1 0 0 0 0 5 1 102 
10 0 0 0 0 10 1 103 
9 0 0 0 0 10 1 102 
4 0 0 0 0 9 1 106 
7 0 0 0 0 10 1 106 
2 0 0 0 0 9 1 106 
7 0 0 0 0 9 1 106 
0 0 0 0 0 0 1 119 
0 0 0 0 0 0 6 108 111 112 113 114 117 
4 0 0 0 0 6 2 110 109 
10 0 0 0 0 5 2 116 115 
7 0 0 0 0 10 2 116 115 
4 0 0 0 0 8 2 116 115 
4 0 0 0 0 6 1 115 
8 0 0 0 0 7 1 115 
9 0 0 0 0 8 1 115 
9 0 0 0 0 8 1 118 
10 0 0 0 0 10 1 118 
7 0 0 0 0 7 1 118 
0 0 0 0 0 0 1 119 
0 0 0 0 0 0 6 120 121 123 127 128 129 
9 0 0 4 0 0 2 126 124 
5 0 0 8 0 0 1 122 
4 0 0 7 0 0 2 126 125 
8 0 0 10 0 0 1 124 
3 0 0 10 0 0 1 125 
10 0 0 6 0 0 1 130 
9 0 0 10 0 0 1 130 
7 0 0 6 0 0 1 130 
5 0 0 10 0 0 1 130 
10 0 0 4 0 0 1 130 
0 0 0 0 0 0 0 
